###################################
@SET RUN_TYPE MD
@SET CUTOFF 200
@SET FUNCTIONAL LDA
@SET PRINT_LEVEL LOW
@SET BASIS_SET_FILE_NAME GTH_BASIS_SETS
@SET BASIS_SET SZV-GTH
@SET EPS_SCF 1.08E-5
@SET EPS_LINRES 5.0E-5
@SET PROJECT_NAME dump-h2o-mtd-dipole
###################################

&GLOBAL
  PROJECT ${PROJECT_NAME}
  RUN_TYPE $RUN_TYPE
  PRINT_LEVEL $PRINT_LEVEL
&END GLOBAL
&FORCE_EVAL
  &PROPERTIES
    &LINRES
      MAX_ITER 1000
      PRECONDITIONER FULL_SINGLE_INVERSE
      EPS $EPS_LINRES
      &DCDR
        Z_MATRIX_METHOD T
	      LIST_OF_ATOMS 1 2 3
        &PRINT 
          &APT 
            FILENAME __STD_OUT__
          &END
        &END PRINT
      &END DCDR
    &END LINRES
  &END PROPERTIES
  METHOD Quickstep
  &DFT
    CHARGE 0
    MULTIPLICITY 1
    BASIS_SET_FILE_NAME $BASIS_SET_FILE_NAME
    POTENTIAL_FILE_NAME POTENTIAL
    &MGRID
      NGRIDS 4
      CUTOFF $CUTOFF
    &END MGRID
    &QS
      EXTRAPOLATION ASPC
      EXTRAPOLATION_ORDER  3
      METHOD GPW
    &END QS
    &SCF
      SCF_GUESS ATOMIC
      EPS_SCF $EPS_SCF
      &OT
        PRECONDITIONER FULL_SINGLE_INVERSE
      &END OT
    &END SCF
    &PRINT
      &MOMENTS
        PERIODIC FALSE
      &END MOMENTS
    &END PRINT
    &POISSON
      POISSON_SOLVER ANALYTIC
      PERIODIC NONE
    &END
    &XC
      &XC_FUNCTIONAL $FUNCTIONAL
      &END
    &END XC
  &END DFT
  &SUBSYS
    &CELL
      PERIODIC NONE
      ABC [angstrom] 5.0 5.0 5.0
    &END CELL
    &KIND DEFAULT
      BASIS_SET $BASIS_SET
      POTENTIAL GTH-$FUNCTIONAL
    &END KIND
    &COORD
      O   0.000000    0.000000    0.000000    
      H   0.000000    0.769665   -0.591648     
      H   0.000000   -0.769665   -0.591648    
    &END COORD

    &COLVAR
      &DIPOLE
        ATOMS 1 2 3
        COMPONENT XYZ
      &END DIPOLE
    &END COLVAR

  &END SUBSYS
&END FORCE_EVAL

&MOTION
  &MD
    ENSEMBLE NVT
    STEPS 10
    TIMESTEP 1.0
    TEMPERATURE 300.0
    &THERMOSTAT
      &NOSE
        LENGTH 3
        YOSHIDA 3
        TIMECON 100.0
        MTS 2
      &END NOSE
    &END
  &END MD
  &FREE_ENERGY
      &METADYN
        DO_HILLS T
        NT_HILLS 2
        WW 1.0e-3
        WTGAMMA 10
        DELTA_T 300
 
        &METAVAR
          SCALE 0.1 ! Debye
          COLVAR 1
        &END METAVAR
  
        &PRINT
         &COLVAR
           FILENAME ./${PROJECT_NAME}-colvar
           COMMON_ITERATION_LEVELS 100000
           &EACH
             METADYNAMICS 2
           &END
          &END COLVAR
         &HILLS
          FILENAME ./${PROJECT_NAME}-hills
           COMMON_ITERATION_LEVELS 100000
          &EACH
            METADYNAMICS 2
          &END
         &END HILLS
        &END PRINT
      &END METADYN
  &END FREE_ENERGY
&END MOTION

